Version identifier: 22.1.1.0 | 2022-11-27 | 9160aff4d
CPXPARAM_Read_DataCheck                          1

Root node processing (before b&c):
  Real time             =    0.00 sec. (0.64 ticks)
Parallel b&c, 8 threads:
  Real time             =    0.00 sec. (0.00 ticks)
  Sync time (average)   =    0.00 sec.
  Wait time (average)   =    0.00 sec.
                          ------------
Total (root+branch&cut) =    0.00 sec. (0.64 ticks)
Funcion objetivo:  210000.0
Status solucion:  integer optimal solution (101)
X_10_0_2_0: 1.0
X_10_17_2_2: 1.0
X_10_19_5_0: 1.0
X_10_21_5_1: 1.0
X_10_29_2_3: 1.0
X_12_6_0_3: 1.0
X_12_16_3_4: 1.0
X_12_19_5_0: 1.0
X_12_23_5_4: 1.0
X_12_26_0_4: 1.0
X_13_6_0_3: 1.0
X_13_10_1_2: 1.0
X_13_16_3_4: 1.0
X_13_17_2_2: 1.0
X_13_25_0_4: 1.0
X_19_1_1_2: 1.0
X_20_1_1_2: 1.0
X_20_6_0_3: 1.0
X_20_7_1_1: 1.0
X_20_26_0_4: 1.0
X_21_16_3_4: 1.0
X_21_28_3_1: 1.0
X_22_26_0_4: 1.0
X_23_26_0_4: 1.0
X_24_3_2_2: 1.0
X_24_7_1_1: 1.0
X_24_13_2_4: 1.0
X_24_16_3_4: 1.0
X_24_27_0_4: 1.0
X_25_6_0_3: 1.0
X_25_15_3_4: 1.0
X_25_18_1_2: 1.0
X_25_20_5_0: 1.0
X_25_21_5_1: 1.0
X_25_22_4_4: 1.0
X_25_23_5_4: 1.0
X_25_24_0_0: 1.0
X_25_26_0_4: 1.0
X_26_0_2_0: 1.0
X_26_3_2_2: 1.0
X_26_5_4_4: 1.0
X_26_6_0_3: 1.0
X_26_11_1_1: 1.0
X_26_13_2_4: 1.0
X_26_16_3_4: 1.0
X_26_27_0_4: 1.0
X_26_29_2_3: 1.0
X_27_8_1_0: 1.0
X_29_10_1_2: 1.0
X_29_14_1_3: 1.0
X_32_12_1_0: 1.0
X_33_2_1_3: 1.0
X_33_11_1_1: 1.0
X_38_9_5_3: 1.0
X_38_20_5_0: 1.0
X_39_4_5_0: 1.0
X_39_9_5_3: 1.0
D_10_2: 1.0
D_10_5: 1.0
D_12_0: 1.0
D_12_3: 1.0
D_12_5: 1.0
D_13_0: 1.0
D_13_1: 1.0
D_13_2: 1.0
D_13_3: 1.0
D_19_1: 1.0
D_20_0: 1.0
D_20_1: 1.0
D_21_3: 1.0
D_22_0: 1.0
D_23_0: 1.0
D_24_0: 1.0
D_24_1: 1.0
D_24_2: 1.0
D_24_3: 1.0
D_25_0: 1.0
D_25_1: 1.0
D_25_3: 1.0
D_25_4: 1.0
D_25_5: 1.0
D_26_0: 1.0
D_26_1: 1.0
D_26_2: 1.0
D_26_3: 1.0
D_26_4: 1.0
D_27_1: 1.0
D_29_1: 1.0
D_32_1: 1.0
D_33_1: 1.0
D_38_5: 1.0
D_39_5: 1.0
R_0_2_0: 1.0
R_1_1_2: 1.0
R_2_1_3: 1.0
R_3_2_2: 1.0
R_4_5_0: 1.0
R_5_4_4: 1.0
R_6_0_3: 1.0
R_7_1_1: 1.0
R_8_1_0: 1.0
R_9_5_3: 1.0
R_10_1_2: 1.0
R_11_1_1: 1.0
R_12_1_0: 1.0
R_13_2_4: 1.0
R_14_1_3: 1.0
R_15_3_4: 1.0
R_16_3_4: 1.0
R_17_2_2: 1.0
R_18_1_2: 1.0
R_19_5_0: 1.0
R_20_5_0: 1.0
R_21_5_1: 1.0
R_22_4_4: 1.0
R_23_5_4: 1.0
R_24_0_0: 1.0
R_25_0_4: 1.0
R_26_0_4: 1.0
R_27_0_4: 1.0
R_28_3_1: 1.0
R_29_2_3: 1.0
W_12_0: 1.0
W_13_0: 1.0
W_25_0: 1.0
W_26_0: 1.0
N_10_0: 5.0
N_12_0: 5.0
N_13_0: 5.0
N_19_0: 1.0
N_20_0: 4.0
N_21_0: 2.0
N_22_0: 1.0
N_23_0: 1.0
N_24_0: 5.0
N_25_0: 5.0
N_25_1: 4.0
N_26_0: 5.0
N_26_1: 4.0
N_27_0: 1.0
N_29_0: 2.0
N_32_0: 1.0
N_33_0: 2.0
N_38_0: 2.0
N_39_0: 2.0
